WARNING: for repeatability, setting FPU to use double precision
============================[ Problem Statistics ]=============================
|                                                                             |
|  Number of variables:        842053                                         |
|  Number of clauses:         2262074                                         |
|  Parse time:                   0.58 s                                       |
|                                                                             |
c ============================[ Search Statistics ]==============================
c | Conflicts |          ORIGINAL         |          LEARNT          | Progress |
c |           |    Vars  Clauses Literals |    Limit  Clauses Lit/Cl |          |
c ===============================================================================
We had 19026 decisions of which only 0 were on extended
We had 190974502 decisions of which only 0 were on extended
c Switched to VSIDS.
c Switched to LRB.
c Switched to VSIDS.
c Switched to LRB.
c Switched to VSIDS.
c Switched to LRB.
c Switched to VSIDS.
c Switched to LRB.
c Switched to VSIDS.
c Switched to LRB.
We had 207044190 decisions of which only 0 were on extended
c Switched to VSIDS.
c Switched to LRB.
c Switched to VSIDS.
c Switched to LRB.
c Switched to VSIDS.
c Switched to LRB.
We had 231423422 decisions of which only 0 were on extended
c Switched to VSIDS.
c Switched to LRB.
c Switched to VSIDS.
We had 260950380 decisions of which only 0 were on extended
c Switched to LRB.
c Switched to VSIDS.
c Switched to LRB.
We had 278751082 decisions of which only 0 were on extended
c Switched to VSIDS.
We had 293911862 decisions of which only 0 were on extended
c Switched to LRB.
We had 294171956 decisions of which only 0 were on extended
We had 294342825 decisions of which only 0 were on extended
c Switched to VSIDS.
c Switched to LRB.
We had 294490193 decisions of which only 0 were on extended
c Switched to VSIDS.
We had 294698960 decisions of which only 0 were on extended
c Switched to LRB.
We had 295131146 decisions of which only 0 were on extended
We had 295236388 decisions of which only 0 were on extended
c Switched to VSIDS.
We had 295494994 decisions of which only 0 were on extended
c Switched to LRB.
We had 296000340 decisions of which only 0 were on extended
We had 296141173 decisions of which only 0 were on extended
We had 296235752 decisions of which only 0 were on extended
c Switched to VSIDS.
We had 296367542 decisions of which only 0 were on extended
We had 296711779 decisions of which only 0 were on extended
c Switched to LRB.
Window full
Deactivate
We had 296945430 decisions of which only 0 were on extended
We had 297091949 decisions of which only 0 were on extended
c Switched to VSIDS.
c ===============================================================================
restarts                  : 1159
conflicts                 : 209753         (59 /sec)
decisions                 : 297251500      (0.00 % random) (82920 /sec)
propagations              : 8191633600     (2285091 /sec)
conflict literals         : 168732760      (19.15 % deleted)

conflicts w/ DIP found    : 158519         (75.57 % of conflicts)
conflicts w/ dangerous DIP: 0              (0.00 % of conflicts)
conflicts w/ DIP-learning : 0              (0.00 % of conflicts)
decisions on ext vars     : 0              (0.00 % of decisions)
total ext vars            : 0           
tried delete ext vars     : 0           
deleted ext vars          : 0           
max ext vars              : 0           

Memory used               : 799.00 MB
CPU time                  : 3584.82 s
DIP computation time      : 29.1453 s (0.81 % of total time)
ER_sel time               : 0.889481 s
ER_add time               : 0 s
ER_delC time              : 0 s
ER_delV time              : 0 s
ER_sub time               : 0.401022 s
ER_stat time              : 0 s

INDETERMINATE
